(set-option :produce-models true)
(set-logic QF_LRA)
(set-info :notes | Strip-packing problem.|)
(declare-fun x0 () Real)
(declare-fun y0 () Real)
(declare-fun x1 () Real)
(declare-fun y1 () Real)
(declare-fun x2 () Real)
(declare-fun y2 () Real)
(declare-fun x3 () Real)
(declare-fun y3 () Real)
(declare-fun x4 () Real)
(declare-fun y4 () Real)
(declare-fun x5 () Real)
(declare-fun y5 () Real)
(declare-fun x6 () Real)
(declare-fun y6 () Real)
(declare-fun x7 () Real)
(declare-fun y7 () Real)
(declare-fun x8 () Real)
(declare-fun y8 () Real)
(declare-fun x9 () Real)
(declare-fun y9 () Real)
(declare-fun x10 () Real)
(declare-fun y10 () Real)
(declare-fun x11 () Real)
(declare-fun y11 () Real)
(declare-fun x12 () Real)
(declare-fun y12 () Real)
(declare-fun x13 () Real)
(declare-fun y13 () Real)
(declare-fun x14 () Real)
(declare-fun y14 () Real)
(declare-fun z () Real)
(declare-fun c () Real)
(assert (and (= c z) (and (>= x0 0) 
(and (>= y0 0) 
(and (>= x1 0) 
(and (>= y1 0) 
(and (>= x2 0) 
(and (>= y2 0) 
(and (>= x3 0) 
(and (>= y3 0) 
(and (>= x4 0) 
(and (>= y4 0) 
(and (>= x5 0) 
(and (>= y5 0) 
(and (>= x6 0) 
(and (>= y6 0) 
(and (>= x7 0) 
(and (>= y7 0) 
(and (>= x8 0) 
(and (>= y8 0) 
(and (>= x9 0) 
(and (>= y9 0) 
(and (>= x10 0) 
(and (>= y10 0) 
(and (>= x11 0) 
(and (>= y11 0) 
(and (>= x12 0) 
(and (>= y12 0) 
(and (>= x13 0) 
(and (>= y13 0) 
(and (>= x14 0) 
(and (>= y14 0) 
(and (>= z 0) 
(and (>= c 0) 
(and (<= (+ x0 0.2107803037) z) 
(and (<= 0.9395920038 y0) 
(and (<= y0 1.0) 
(and (<= x0 (- 4.9039546602 0.2107803037)) 
(and (>= x0 0) 
(and (<= (+ x1 0.5432643441) z) 
(and (<= 0.9362522538 y1) 
(and (<= y1 1.0) 
(and (<= x1 (- 4.9039546602 0.5432643441)) 
(and (>= x1 0) 
(and (<= (+ x2 0.5102803541) z) 
(and (<= 0.9168193762 y2) 
(and (<= y2 1.0) 
(and (<= x2 (- 4.9039546602 0.5102803541)) 
(and (>= x2 0) 
(and (<= (+ x3 0.2357144978) z) 
(and (<= 0.9123054539 y3) 
(and (<= y3 1.0) 
(and (<= x3 (- 4.9039546602 0.2357144978)) 
(and (>= x3 0) 
(and (<= (+ x4 0.1528292723) z) 
(and (<= 0.7725764712 y4) 
(and (<= y4 1.0) 
(and (<= x4 (- 4.9039546602 0.1528292723)) 
(and (>= x4 0) 
(and (<= (+ x5 0.5818786782) z) 
(and (<= 0.7626947963 y5) 
(and (<= y5 1.0) 
(and (<= x5 (- 4.9039546602 0.5818786782)) 
(and (>= x5 0) 
(and (<= (+ x6 0.7999535359) z) 
(and (<= 0.7030258771 y6) 
(and (<= y6 1.0) 
(and (<= x6 (- 4.9039546602 0.7999535359)) 
(and (>= x6 0) 
(and (<= (+ x7 0.2571891007) z) 
(and (<= 0.6680195366 y7) 
(and (<= y7 1.0) 
(and (<= x7 (- 4.9039546602 0.2571891007)) 
(and (>= x7 0) 
(and (<= (+ x8 0.3709618381) z) 
(and (<= 0.5974308092 y8) 
(and (<= y8 1.0) 
(and (<= x8 (- 4.9039546602 0.3709618381)) 
(and (>= x8 0) 
(and (<= (+ x9 0.3409047916) z) 
(and (<= 0.4098472454 y9) 
(and (<= y9 1.0) 
(and (<= x9 (- 4.9039546602 0.3409047916)) 
(and (>= x9 0) 
(and (<= (+ x10 0.9001979437) z) 
(and (<= 0.3653057744 y10) 
(and (<= y10 1.0) 
(and (<= x10 (- 4.9039546602 0.9001979437)) 
(and (>= x10 0) 
(and (<= (+ x11 0.2879502304) z) 
(and (<= 0.3200456979 y11) 
(and (<= y11 1.0) 
(and (<= x11 (- 4.9039546602 0.2879502304)) 
(and (>= x11 0) 
(and (<= (+ x12 0.6986178625) z) 
(and (<= 0.1592361894 y12) 
(and (<= y12 1.0) 
(and (<= x12 (- 4.9039546602 0.6986178625)) 
(and (>= x12 0) 
(and (<= (+ x13 0.6294433589) z) 
(and (<= 0.0498145641 y13) 
(and (<= y13 1.0) 
(and (<= x13 (- 4.9039546602 0.6294433589)) 
(and (>= x13 0) 
(and (<= (+ x14 0.393124284) z) 
(and (<= 0.0188309149 y14) 
(and (<= y14 1.0) 
(and (<= x14 (- 4.9039546602 0.393124284)) 
(and (>= x14 0) 
(and (<= c 4.9039546602) 
(and (or (<= (+ x0 0.2107803037) x1) (or (<= (+ x1 0.5432643441) x0) (or (>= (- y0 0.9395920038) y1) (or (>= (- y1 0.9362522538) y0))))) 
(and (or (<= (+ x0 0.2107803037) x2) (or (<= (+ x2 0.5102803541) x0) (or (>= (- y0 0.9395920038) y2) (or (>= (- y2 0.9168193762) y0))))) 
(and (or (<= (+ x0 0.2107803037) x3) (or (<= (+ x3 0.2357144978) x0) (or (>= (- y0 0.9395920038) y3) (or (>= (- y3 0.9123054539) y0))))) 
(and (or (<= (+ x0 0.2107803037) x4) (or (<= (+ x4 0.1528292723) x0) (or (>= (- y0 0.9395920038) y4) (or (>= (- y4 0.7725764712) y0))))) 
(and (or (<= (+ x0 0.2107803037) x5) (or (<= (+ x5 0.5818786782) x0) (or (>= (- y0 0.9395920038) y5) (or (>= (- y5 0.7626947963) y0))))) 
(and (or (<= (+ x0 0.2107803037) x6) (or (<= (+ x6 0.7999535359) x0) (or (>= (- y0 0.9395920038) y6) (or (>= (- y6 0.7030258771) y0))))) 
(and (or (<= (+ x0 0.2107803037) x7) (or (<= (+ x7 0.2571891007) x0) (or (>= (- y0 0.9395920038) y7) (or (>= (- y7 0.6680195366) y0))))) 
(and (or (<= (+ x0 0.2107803037) x8) (or (<= (+ x8 0.3709618381) x0) (or (>= (- y0 0.9395920038) y8) (or (>= (- y8 0.5974308092) y0))))) 
(and (or (<= (+ x0 0.2107803037) x9) (or (<= (+ x9 0.3409047916) x0) (or (>= (- y0 0.9395920038) y9) (or (>= (- y9 0.4098472454) y0))))) 
(and (or (<= (+ x0 0.2107803037) x10) (or (<= (+ x10 0.9001979437) x0) (or (>= (- y0 0.9395920038) y10) (or (>= (- y10 0.3653057744) y0))))) 
(and (or (<= (+ x0 0.2107803037) x11) (or (<= (+ x11 0.2879502304) x0) (or (>= (- y0 0.9395920038) y11) (or (>= (- y11 0.3200456979) y0))))) 
(and (or (<= (+ x0 0.2107803037) x12) (or (<= (+ x12 0.6986178625) x0) (or (>= (- y0 0.9395920038) y12) (or (>= (- y12 0.1592361894) y0))))) 
(and (or (<= (+ x0 0.2107803037) x13) (or (<= (+ x13 0.6294433589) x0) (or (>= (- y0 0.9395920038) y13) (or (>= (- y13 0.0498145641) y0))))) 
(and (or (<= (+ x0 0.2107803037) x14) (or (<= (+ x14 0.393124284) x0) (or (>= (- y0 0.9395920038) y14) (or (>= (- y14 0.0188309149) y0))))) 
(and (or (<= (+ x1 0.5432643441) x2) (or (<= (+ x2 0.5102803541) x1) (or (>= (- y1 0.9362522538) y2) (or (>= (- y2 0.9168193762) y1))))) 
(and (or (<= (+ x1 0.5432643441) x3) (or (<= (+ x3 0.2357144978) x1) (or (>= (- y1 0.9362522538) y3) (or (>= (- y3 0.9123054539) y1))))) 
(and (or (<= (+ x1 0.5432643441) x4) (or (<= (+ x4 0.1528292723) x1) (or (>= (- y1 0.9362522538) y4) (or (>= (- y4 0.7725764712) y1))))) 
(and (or (<= (+ x1 0.5432643441) x5) (or (<= (+ x5 0.5818786782) x1) (or (>= (- y1 0.9362522538) y5) (or (>= (- y5 0.7626947963) y1))))) 
(and (or (<= (+ x1 0.5432643441) x6) (or (<= (+ x6 0.7999535359) x1) (or (>= (- y1 0.9362522538) y6) (or (>= (- y6 0.7030258771) y1))))) 
(and (or (<= (+ x1 0.5432643441) x7) (or (<= (+ x7 0.2571891007) x1) (or (>= (- y1 0.9362522538) y7) (or (>= (- y7 0.6680195366) y1))))) 
(and (or (<= (+ x1 0.5432643441) x8) (or (<= (+ x8 0.3709618381) x1) (or (>= (- y1 0.9362522538) y8) (or (>= (- y8 0.5974308092) y1))))) 
(and (or (<= (+ x1 0.5432643441) x9) (or (<= (+ x9 0.3409047916) x1) (or (>= (- y1 0.9362522538) y9) (or (>= (- y9 0.4098472454) y1))))) 
(and (or (<= (+ x1 0.5432643441) x10) (or (<= (+ x10 0.9001979437) x1) (or (>= (- y1 0.9362522538) y10) (or (>= (- y10 0.3653057744) y1))))) 
(and (or (<= (+ x1 0.5432643441) x11) (or (<= (+ x11 0.2879502304) x1) (or (>= (- y1 0.9362522538) y11) (or (>= (- y11 0.3200456979) y1))))) 
(and (or (<= (+ x1 0.5432643441) x12) (or (<= (+ x12 0.6986178625) x1) (or (>= (- y1 0.9362522538) y12) (or (>= (- y12 0.1592361894) y1))))) 
(and (or (<= (+ x1 0.5432643441) x13) (or (<= (+ x13 0.6294433589) x1) (or (>= (- y1 0.9362522538) y13) (or (>= (- y13 0.0498145641) y1))))) 
(and (or (<= (+ x1 0.5432643441) x14) (or (<= (+ x14 0.393124284) x1) (or (>= (- y1 0.9362522538) y14) (or (>= (- y14 0.0188309149) y1))))) 
(and (or (<= (+ x2 0.5102803541) x3) (or (<= (+ x3 0.2357144978) x2) (or (>= (- y2 0.9168193762) y3) (or (>= (- y3 0.9123054539) y2))))) 
(and (or (<= (+ x2 0.5102803541) x4) (or (<= (+ x4 0.1528292723) x2) (or (>= (- y2 0.9168193762) y4) (or (>= (- y4 0.7725764712) y2))))) 
(and (or (<= (+ x2 0.5102803541) x5) (or (<= (+ x5 0.5818786782) x2) (or (>= (- y2 0.9168193762) y5) (or (>= (- y5 0.7626947963) y2))))) 
(and (or (<= (+ x2 0.5102803541) x6) (or (<= (+ x6 0.7999535359) x2) (or (>= (- y2 0.9168193762) y6) (or (>= (- y6 0.7030258771) y2))))) 
(and (or (<= (+ x2 0.5102803541) x7) (or (<= (+ x7 0.2571891007) x2) (or (>= (- y2 0.9168193762) y7) (or (>= (- y7 0.6680195366) y2))))) 
(and (or (<= (+ x2 0.5102803541) x8) (or (<= (+ x8 0.3709618381) x2) (or (>= (- y2 0.9168193762) y8) (or (>= (- y8 0.5974308092) y2))))) 
(and (or (<= (+ x2 0.5102803541) x9) (or (<= (+ x9 0.3409047916) x2) (or (>= (- y2 0.9168193762) y9) (or (>= (- y9 0.4098472454) y2))))) 
(and (or (<= (+ x2 0.5102803541) x10) (or (<= (+ x10 0.9001979437) x2) (or (>= (- y2 0.9168193762) y10) (or (>= (- y10 0.3653057744) y2))))) 
(and (or (<= (+ x2 0.5102803541) x11) (or (<= (+ x11 0.2879502304) x2) (or (>= (- y2 0.9168193762) y11) (or (>= (- y11 0.3200456979) y2))))) 
(and (or (<= (+ x2 0.5102803541) x12) (or (<= (+ x12 0.6986178625) x2) (or (>= (- y2 0.9168193762) y12) (or (>= (- y12 0.1592361894) y2))))) 
(and (or (<= (+ x2 0.5102803541) x13) (or (<= (+ x13 0.6294433589) x2) (or (>= (- y2 0.9168193762) y13) (or (>= (- y13 0.0498145641) y2))))) 
(and (or (<= (+ x2 0.5102803541) x14) (or (<= (+ x14 0.393124284) x2) (or (>= (- y2 0.9168193762) y14) (or (>= (- y14 0.0188309149) y2))))) 
(and (or (<= (+ x3 0.2357144978) x4) (or (<= (+ x4 0.1528292723) x3) (or (>= (- y3 0.9123054539) y4) (or (>= (- y4 0.7725764712) y3))))) 
(and (or (<= (+ x3 0.2357144978) x5) (or (<= (+ x5 0.5818786782) x3) (or (>= (- y3 0.9123054539) y5) (or (>= (- y5 0.7626947963) y3))))) 
(and (or (<= (+ x3 0.2357144978) x6) (or (<= (+ x6 0.7999535359) x3) (or (>= (- y3 0.9123054539) y6) (or (>= (- y6 0.7030258771) y3))))) 
(and (or (<= (+ x3 0.2357144978) x7) (or (<= (+ x7 0.2571891007) x3) (or (>= (- y3 0.9123054539) y7) (or (>= (- y7 0.6680195366) y3))))) 
(and (or (<= (+ x3 0.2357144978) x8) (or (<= (+ x8 0.3709618381) x3) (or (>= (- y3 0.9123054539) y8) (or (>= (- y8 0.5974308092) y3))))) 
(and (or (<= (+ x3 0.2357144978) x9) (or (<= (+ x9 0.3409047916) x3) (or (>= (- y3 0.9123054539) y9) (or (>= (- y9 0.4098472454) y3))))) 
(and (or (<= (+ x3 0.2357144978) x10) (or (<= (+ x10 0.9001979437) x3) (or (>= (- y3 0.9123054539) y10) (or (>= (- y10 0.3653057744) y3))))) 
(and (or (<= (+ x3 0.2357144978) x11) (or (<= (+ x11 0.2879502304) x3) (or (>= (- y3 0.9123054539) y11) (or (>= (- y11 0.3200456979) y3))))) 
(and (or (<= (+ x3 0.2357144978) x12) (or (<= (+ x12 0.6986178625) x3) (or (>= (- y3 0.9123054539) y12) (or (>= (- y12 0.1592361894) y3))))) 
(and (or (<= (+ x3 0.2357144978) x13) (or (<= (+ x13 0.6294433589) x3) (or (>= (- y3 0.9123054539) y13) (or (>= (- y13 0.0498145641) y3))))) 
(and (or (<= (+ x3 0.2357144978) x14) (or (<= (+ x14 0.393124284) x3) (or (>= (- y3 0.9123054539) y14) (or (>= (- y14 0.0188309149) y3))))) 
(and (or (<= (+ x4 0.1528292723) x5) (or (<= (+ x5 0.5818786782) x4) (or (>= (- y4 0.7725764712) y5) (or (>= (- y5 0.7626947963) y4))))) 
(and (or (<= (+ x4 0.1528292723) x6) (or (<= (+ x6 0.7999535359) x4) (or (>= (- y4 0.7725764712) y6) (or (>= (- y6 0.7030258771) y4))))) 
(and (or (<= (+ x4 0.1528292723) x7) (or (<= (+ x7 0.2571891007) x4) (or (>= (- y4 0.7725764712) y7) (or (>= (- y7 0.6680195366) y4))))) 
(and (or (<= (+ x4 0.1528292723) x8) (or (<= (+ x8 0.3709618381) x4) (or (>= (- y4 0.7725764712) y8) (or (>= (- y8 0.5974308092) y4))))) 
(and (or (<= (+ x4 0.1528292723) x9) (or (<= (+ x9 0.3409047916) x4) (or (>= (- y4 0.7725764712) y9) (or (>= (- y9 0.4098472454) y4))))) 
(and (or (<= (+ x4 0.1528292723) x10) (or (<= (+ x10 0.9001979437) x4) (or (>= (- y4 0.7725764712) y10) (or (>= (- y10 0.3653057744) y4))))) 
(and (or (<= (+ x4 0.1528292723) x11) (or (<= (+ x11 0.2879502304) x4) (or (>= (- y4 0.7725764712) y11) (or (>= (- y11 0.3200456979) y4))))) 
(and (or (<= (+ x4 0.1528292723) x12) (or (<= (+ x12 0.6986178625) x4) (or (>= (- y4 0.7725764712) y12) (or (>= (- y12 0.1592361894) y4))))) 
(and (or (<= (+ x4 0.1528292723) x13) (or (<= (+ x13 0.6294433589) x4) (or (>= (- y4 0.7725764712) y13) (or (>= (- y13 0.0498145641) y4))))) 
(and (or (<= (+ x4 0.1528292723) x14) (or (<= (+ x14 0.393124284) x4) (or (>= (- y4 0.7725764712) y14) (or (>= (- y14 0.0188309149) y4))))) 
(and (or (<= (+ x5 0.5818786782) x6) (or (<= (+ x6 0.7999535359) x5) (or (>= (- y5 0.7626947963) y6) (or (>= (- y6 0.7030258771) y5))))) 
(and (or (<= (+ x5 0.5818786782) x7) (or (<= (+ x7 0.2571891007) x5) (or (>= (- y5 0.7626947963) y7) (or (>= (- y7 0.6680195366) y5))))) 
(and (or (<= (+ x5 0.5818786782) x8) (or (<= (+ x8 0.3709618381) x5) (or (>= (- y5 0.7626947963) y8) (or (>= (- y8 0.5974308092) y5))))) 
(and (or (<= (+ x5 0.5818786782) x9) (or (<= (+ x9 0.3409047916) x5) (or (>= (- y5 0.7626947963) y9) (or (>= (- y9 0.4098472454) y5))))) 
(and (or (<= (+ x5 0.5818786782) x10) (or (<= (+ x10 0.9001979437) x5) (or (>= (- y5 0.7626947963) y10) (or (>= (- y10 0.3653057744) y5))))) 
(and (or (<= (+ x5 0.5818786782) x11) (or (<= (+ x11 0.2879502304) x5) (or (>= (- y5 0.7626947963) y11) (or (>= (- y11 0.3200456979) y5))))) 
(and (or (<= (+ x5 0.5818786782) x12) (or (<= (+ x12 0.6986178625) x5) (or (>= (- y5 0.7626947963) y12) (or (>= (- y12 0.1592361894) y5))))) 
(and (or (<= (+ x5 0.5818786782) x13) (or (<= (+ x13 0.6294433589) x5) (or (>= (- y5 0.7626947963) y13) (or (>= (- y13 0.0498145641) y5))))) 
(and (or (<= (+ x5 0.5818786782) x14) (or (<= (+ x14 0.393124284) x5) (or (>= (- y5 0.7626947963) y14) (or (>= (- y14 0.0188309149) y5))))) 
(and (or (<= (+ x6 0.7999535359) x7) (or (<= (+ x7 0.2571891007) x6) (or (>= (- y6 0.7030258771) y7) (or (>= (- y7 0.6680195366) y6))))) 
(and (or (<= (+ x6 0.7999535359) x8) (or (<= (+ x8 0.3709618381) x6) (or (>= (- y6 0.7030258771) y8) (or (>= (- y8 0.5974308092) y6))))) 
(and (or (<= (+ x6 0.7999535359) x9) (or (<= (+ x9 0.3409047916) x6) (or (>= (- y6 0.7030258771) y9) (or (>= (- y9 0.4098472454) y6))))) 
(and (or (<= (+ x6 0.7999535359) x10) (or (<= (+ x10 0.9001979437) x6) (or (>= (- y6 0.7030258771) y10) (or (>= (- y10 0.3653057744) y6))))) 
(and (or (<= (+ x6 0.7999535359) x11) (or (<= (+ x11 0.2879502304) x6) (or (>= (- y6 0.7030258771) y11) (or (>= (- y11 0.3200456979) y6))))) 
(and (or (<= (+ x6 0.7999535359) x12) (or (<= (+ x12 0.6986178625) x6) (or (>= (- y6 0.7030258771) y12) (or (>= (- y12 0.1592361894) y6))))) 
(and (or (<= (+ x6 0.7999535359) x13) (or (<= (+ x13 0.6294433589) x6) (or (>= (- y6 0.7030258771) y13) (or (>= (- y13 0.0498145641) y6))))) 
(and (or (<= (+ x6 0.7999535359) x14) (or (<= (+ x14 0.393124284) x6) (or (>= (- y6 0.7030258771) y14) (or (>= (- y14 0.0188309149) y6))))) 
(and (or (<= (+ x7 0.2571891007) x8) (or (<= (+ x8 0.3709618381) x7) (or (>= (- y7 0.6680195366) y8) (or (>= (- y8 0.5974308092) y7))))) 
(and (or (<= (+ x7 0.2571891007) x9) (or (<= (+ x9 0.3409047916) x7) (or (>= (- y7 0.6680195366) y9) (or (>= (- y9 0.4098472454) y7))))) 
(and (or (<= (+ x7 0.2571891007) x10) (or (<= (+ x10 0.9001979437) x7) (or (>= (- y7 0.6680195366) y10) (or (>= (- y10 0.3653057744) y7))))) 
(and (or (<= (+ x7 0.2571891007) x11) (or (<= (+ x11 0.2879502304) x7) (or (>= (- y7 0.6680195366) y11) (or (>= (- y11 0.3200456979) y7))))) 
(and (or (<= (+ x7 0.2571891007) x12) (or (<= (+ x12 0.6986178625) x7) (or (>= (- y7 0.6680195366) y12) (or (>= (- y12 0.1592361894) y7))))) 
(and (or (<= (+ x7 0.2571891007) x13) (or (<= (+ x13 0.6294433589) x7) (or (>= (- y7 0.6680195366) y13) (or (>= (- y13 0.0498145641) y7))))) 
(and (or (<= (+ x7 0.2571891007) x14) (or (<= (+ x14 0.393124284) x7) (or (>= (- y7 0.6680195366) y14) (or (>= (- y14 0.0188309149) y7))))) 
(and (or (<= (+ x8 0.3709618381) x9) (or (<= (+ x9 0.3409047916) x8) (or (>= (- y8 0.5974308092) y9) (or (>= (- y9 0.4098472454) y8))))) 
(and (or (<= (+ x8 0.3709618381) x10) (or (<= (+ x10 0.9001979437) x8) (or (>= (- y8 0.5974308092) y10) (or (>= (- y10 0.3653057744) y8))))) 
(and (or (<= (+ x8 0.3709618381) x11) (or (<= (+ x11 0.2879502304) x8) (or (>= (- y8 0.5974308092) y11) (or (>= (- y11 0.3200456979) y8))))) 
(and (or (<= (+ x8 0.3709618381) x12) (or (<= (+ x12 0.6986178625) x8) (or (>= (- y8 0.5974308092) y12) (or (>= (- y12 0.1592361894) y8))))) 
(and (or (<= (+ x8 0.3709618381) x13) (or (<= (+ x13 0.6294433589) x8) (or (>= (- y8 0.5974308092) y13) (or (>= (- y13 0.0498145641) y8))))) 
(and (or (<= (+ x8 0.3709618381) x14) (or (<= (+ x14 0.393124284) x8) (or (>= (- y8 0.5974308092) y14) (or (>= (- y14 0.0188309149) y8))))) 
(and (or (<= (+ x9 0.3409047916) x10) (or (<= (+ x10 0.9001979437) x9) (or (>= (- y9 0.4098472454) y10) (or (>= (- y10 0.3653057744) y9))))) 
(and (or (<= (+ x9 0.3409047916) x11) (or (<= (+ x11 0.2879502304) x9) (or (>= (- y9 0.4098472454) y11) (or (>= (- y11 0.3200456979) y9))))) 
(and (or (<= (+ x9 0.3409047916) x12) (or (<= (+ x12 0.6986178625) x9) (or (>= (- y9 0.4098472454) y12) (or (>= (- y12 0.1592361894) y9))))) 
(and (or (<= (+ x9 0.3409047916) x13) (or (<= (+ x13 0.6294433589) x9) (or (>= (- y9 0.4098472454) y13) (or (>= (- y13 0.0498145641) y9))))) 
(and (or (<= (+ x9 0.3409047916) x14) (or (<= (+ x14 0.393124284) x9) (or (>= (- y9 0.4098472454) y14) (or (>= (- y14 0.0188309149) y9))))) 
(and (or (<= (+ x10 0.9001979437) x11) (or (<= (+ x11 0.2879502304) x10) (or (>= (- y10 0.3653057744) y11) (or (>= (- y11 0.3200456979) y10))))) 
(and (or (<= (+ x10 0.9001979437) x12) (or (<= (+ x12 0.6986178625) x10) (or (>= (- y10 0.3653057744) y12) (or (>= (- y12 0.1592361894) y10))))) 
(and (or (<= (+ x10 0.9001979437) x13) (or (<= (+ x13 0.6294433589) x10) (or (>= (- y10 0.3653057744) y13) (or (>= (- y13 0.0498145641) y10))))) 
(and (or (<= (+ x10 0.9001979437) x14) (or (<= (+ x14 0.393124284) x10) (or (>= (- y10 0.3653057744) y14) (or (>= (- y14 0.0188309149) y10))))) 
(and (or (<= (+ x11 0.2879502304) x12) (or (<= (+ x12 0.6986178625) x11) (or (>= (- y11 0.3200456979) y12) (or (>= (- y12 0.1592361894) y11))))) 
(and (or (<= (+ x11 0.2879502304) x13) (or (<= (+ x13 0.6294433589) x11) (or (>= (- y11 0.3200456979) y13) (or (>= (- y13 0.0498145641) y11))))) 
(and (or (<= (+ x11 0.2879502304) x14) (or (<= (+ x14 0.393124284) x11) (or (>= (- y11 0.3200456979) y14) (or (>= (- y14 0.0188309149) y11))))) 
(and (or (<= (+ x12 0.6986178625) x13) (or (<= (+ x13 0.6294433589) x12) (or (>= (- y12 0.1592361894) y13) (or (>= (- y13 0.0498145641) y12))))) 
(and (or (<= (+ x12 0.6986178625) x14) (or (<= (+ x14 0.393124284) x12) (or (>= (- y12 0.1592361894) y14) (or (>= (- y14 0.0188309149) y12))))) 
(and (or (<= (+ x13 0.6294433589) x14) (or (<= (+ x14 0.393124284) x13) (or (>= (- y13 0.0498145641) y14) (or (>= (- y14 0.0188309149) y13))))) )))))))))))))))))))))))))))))))))))))))))))))))))))))))))))))))))))))))))))))))))))))))))))))))))))))))))))))))))))))))))))))))))))))))))))))))))))))))))))))))))))))))))))))))))))))))))))))))))))))))))))))))))))))))
(minimize c)
(check-sat)
(get-objectives)
(exit)
